p cnf 10 50
10 9 -1 0
-4 -6 5 0
-3 -6 9 0
6 5 -2 0
2 -7 4 0
7 1 2 0
-1 5 -3 0
-8 9 10 0
-4 5 -2 0
9 -10 7 0
-8 -6 -10 0
-4 2 10 0
3 2 -10 0
-3 -4 -9 0
-7 2 5 0
1 -7 8 0
2 1 6 0
-8 2 7 0
1 10 7 0
-5 -1 -10 0
-2 -1 -5 0
9 -6 10 0
1 -3 2 0
-9 3 4 0
-5 1 -8 0
-3 7 2 0
-4 -8 -5 0
-1 6 -10 0
1 -9 4 0
10 -3 1 0
-2 10 8 0
-3 6 1 0
-2 8 -3 0
-8 3 2 0
-6 -5 1 0
-8 -7 -2 0
-8 -3 -7 0
-1 3 -10 0
-1 2 -10 0
10 -8 -3 0
-1 -6 5 0
-7 -6 10 0
-4 1 -5 0
-4 3 -5 0
-2 -5 3 0
4 3 8 0
-2 6 3 0
8 -3 4 0
10 -7 1 0
10 -7 3 0
